(set-logic HORN)
(declare-datatypes ((Nat_186 0)) (((Z_531 ) (S_179 (unS_200 Nat_186)))))
(declare-fun diseqNat_186 (Nat_186 Nat_186) Bool)
(declare-fun unS_201 (Nat_186 Nat_186) Bool)
(declare-fun isZ_173 (Nat_186) Bool)
(declare-fun isS_173 (Nat_186) Bool)
(assert (forall ((x_11904 Nat_186))
	(unS_201 x_11904 (S_179 x_11904))))
(assert (isZ_173 Z_531))
(assert (forall ((x_11906 Nat_186))
	(isS_173 (S_179 x_11906))))
(assert (forall ((x_11907 Nat_186))
	(diseqNat_186 Z_531 (S_179 x_11907))))
(assert (forall ((x_11908 Nat_186))
	(diseqNat_186 (S_179 x_11908) Z_531)))
(assert (forall ((x_11909 Nat_186) (x_11910 Nat_186))
	(=> (diseqNat_186 x_11909 x_11910)
	    (diseqNat_186 (S_179 x_11909) (S_179 x_11910)))))
(declare-fun add_101 (Nat_186 Nat_186 Nat_186) Bool)
(declare-fun minus_100 (Nat_186 Nat_186 Nat_186) Bool)
(declare-fun le_100 (Nat_186 Nat_186) Bool)
(declare-fun ge_100 (Nat_186 Nat_186) Bool)
(declare-fun lt_101 (Nat_186 Nat_186) Bool)
(declare-fun gt_101 (Nat_186 Nat_186) Bool)
(declare-fun mult_100 (Nat_186 Nat_186 Nat_186) Bool)
(declare-fun div_100 (Nat_186 Nat_186 Nat_186) Bool)
(declare-fun mod_100 (Nat_186 Nat_186 Nat_186) Bool)
(assert (forall ((y_470 Nat_186))
	(add_101 y_470 Z_531 y_470)))
(assert (forall ((x_11888 Nat_186) (y_470 Nat_186) (r_114 Nat_186))
	(=> (add_101 r_114 x_11888 y_470)
	    (add_101 (S_179 r_114) (S_179 x_11888) y_470))))
(assert (forall ((y_470 Nat_186))
	(minus_100 Z_531 Z_531 y_470)))
(assert (forall ((x_11888 Nat_186) (y_470 Nat_186) (r_114 Nat_186))
	(=> (minus_100 r_114 x_11888 y_470)
	    (minus_100 (S_179 r_114) (S_179 x_11888) y_470))))
(assert (forall ((y_470 Nat_186))
	(le_100 Z_531 y_470)))
(assert (forall ((x_11888 Nat_186) (y_470 Nat_186))
	(=> (le_100 x_11888 y_470)
	    (le_100 (S_179 x_11888) (S_179 y_470)))))
(assert (forall ((y_470 Nat_186))
	(ge_100 y_470 Z_531)))
(assert (forall ((x_11888 Nat_186) (y_470 Nat_186))
	(=> (ge_100 x_11888 y_470)
	    (ge_100 (S_179 x_11888) (S_179 y_470)))))
(assert (forall ((y_470 Nat_186))
	(lt_101 Z_531 (S_179 y_470))))
(assert (forall ((x_11888 Nat_186) (y_470 Nat_186))
	(=> (lt_101 x_11888 y_470)
	    (lt_101 (S_179 x_11888) (S_179 y_470)))))
(assert (forall ((y_470 Nat_186))
	(gt_101 (S_179 y_470) Z_531)))
(assert (forall ((x_11888 Nat_186) (y_470 Nat_186))
	(=> (gt_101 x_11888 y_470)
	    (gt_101 (S_179 x_11888) (S_179 y_470)))))
(assert (forall ((y_470 Nat_186))
	(mult_100 Z_531 Z_531 y_470)))
(assert (forall ((x_11888 Nat_186) (y_470 Nat_186) (r_114 Nat_186) (z_532 Nat_186))
	(=>	(and (mult_100 r_114 x_11888 y_470)
			(add_101 z_532 r_114 y_470))
		(mult_100 z_532 (S_179 x_11888) y_470))))
(assert (forall ((x_11888 Nat_186) (y_470 Nat_186))
	(=> (lt_101 x_11888 y_470)
	    (div_100 Z_531 x_11888 y_470))))
(assert (forall ((x_11888 Nat_186) (y_470 Nat_186) (r_114 Nat_186) (z_532 Nat_186))
	(=>	(and (ge_100 x_11888 y_470)
			(minus_100 z_532 x_11888 y_470)
			(div_100 r_114 z_532 y_470))
		(div_100 (S_179 r_114) x_11888 y_470))))
(assert (forall ((x_11888 Nat_186) (y_470 Nat_186))
	(=> (lt_101 x_11888 y_470)
	    (mod_100 x_11888 x_11888 y_470))))
(assert (forall ((x_11888 Nat_186) (y_470 Nat_186) (r_114 Nat_186) (z_532 Nat_186))
	(=>	(and (ge_100 x_11888 y_470)
			(minus_100 z_532 x_11888 y_470)
			(mod_100 r_114 z_532 y_470))
		(mod_100 r_114 x_11888 y_470))))
(declare-datatypes ((list_79 0)) (((nil_84 ) (cons_79 (head_158 Nat_186) (tail_158 list_79)))))
(declare-fun diseqlist_79 (list_79 list_79) Bool)
(declare-fun head_159 (Nat_186 list_79) Bool)
(declare-fun tail_159 (list_79 list_79) Bool)
(declare-fun isnil_84 (list_79) Bool)
(declare-fun iscons_79 (list_79) Bool)
(assert (forall ((x_11890 Nat_186) (x_11891 list_79))
	(head_159 x_11890 (cons_79 x_11890 x_11891))))
(assert (forall ((x_11890 Nat_186) (x_11891 list_79))
	(tail_159 x_11891 (cons_79 x_11890 x_11891))))
(assert (isnil_84 nil_84))
(assert (forall ((x_11893 Nat_186) (x_11894 list_79))
	(iscons_79 (cons_79 x_11893 x_11894))))
(assert (forall ((x_11895 Nat_186) (x_11896 list_79))
	(diseqlist_79 nil_84 (cons_79 x_11895 x_11896))))
(assert (forall ((x_11897 Nat_186) (x_11898 list_79))
	(diseqlist_79 (cons_79 x_11897 x_11898) nil_84)))
(assert (forall ((x_11899 Nat_186) (x_11900 list_79) (x_11901 Nat_186) (x_11902 list_79))
	(=> (diseqNat_186 x_11899 x_11901)
	    (diseqlist_79 (cons_79 x_11899 x_11900) (cons_79 x_11901 x_11902)))))
(assert (forall ((x_11899 Nat_186) (x_11900 list_79) (x_11901 Nat_186) (x_11902 list_79))
	(=> (diseqlist_79 x_11900 x_11902)
	    (diseqlist_79 (cons_79 x_11899 x_11900) (cons_79 x_11901 x_11902)))))
(declare-fun x_11881 (list_79 list_79 list_79) Bool)
(assert (forall ((x_11884 list_79) (z_530 Nat_186) (xs_160 list_79) (y_469 list_79))
	(=> (x_11881 x_11884 xs_160 y_469)
	    (x_11881 (cons_79 z_530 x_11884) (cons_79 z_530 xs_160) y_469))))
(assert (forall ((x_11885 list_79))
	(x_11881 x_11885 nil_84 x_11885)))
(assert (forall ((x_11886 list_79) (xs_161 list_79) (ys_40 list_79) (zs_5 list_79))
	(=>	(and true
			(diseqlist_79 xs_161 ys_40)
			(x_11881 x_11886 xs_161 zs_5)
			(x_11881 x_11886 ys_40 zs_5))
		false)))
(check-sat)
